% Auto-generated by scripts/generate_dzn.py
% problem_type   = regex
% instance       = regex_26
% source_json    = instances_json/2_high_blowup/regex_26.json
% blowup         = 29.0
% representation = DFA

mode = 0;

var_count = 34;
Q = 377;
S = 3;
q0 = 1;
F = {234, 235, 236, 237, 238, 239, 240, 241, 242, 243, 244, 245, 246, 247, 248, 249, 250, 251, 252, 253, 254, 255, 256, 257, 258, 259, 260, 261, 262, 263, 264, 265, 266, 267, 268, 269, 270, 271, 272, 273, 274, 275, 276, 277, 278, 279, 280, 281, 282, 283, 284, 285, 286, 287, 288, 289, 290, 291, 292, 293, 294, 295, 296, 297, 298, 299, 300, 301, 302, 303, 304, 305, 306, 307, 308, 309, 310, 311, 312, 313, 314, 315, 316, 317, 318, 319, 320, 321, 322, 323, 324, 325, 326, 327, 328, 329, 330, 331, 332, 333, 334, 335, 336, 337, 338, 339, 340, 341, 342, 343, 344, 345, 346, 347, 348, 349, 350, 351, 352, 353, 354, 355, 356, 357, 358, 359, 360, 361, 362, 363, 364, 365, 366, 367, 368, 369, 370, 371, 372, 373, 374, 375, 376, 377};
d_dfa = array2d(1..377, 1..3, [
  1, 1, 2,
  1, 3, 2,
  5, 5, 4,
  8, 7, 6,
  8, 8, 6,
  11, 10, 9,
  13, 13, 12,
  11, 11, 9,
  16, 15, 14,
  18, 18, 17,
  16, 16, 14,
  21, 20, 19,
  21, 21, 19,
  24, 23, 22,
  26, 26, 25,
  24, 24, 22,
  29, 28, 27,
  29, 29, 27,
  32, 31, 30,
  34, 34, 33,
  32, 32, 30,
  37, 36, 35,
  39, 39, 38,
  37, 37, 35,
  42, 41, 40,
  42, 42, 40,
  45, 44, 43,
  47, 47, 46,
  45, 45, 43,
  50, 49, 48,
  52, 52, 51,
  50, 50, 48,
  55, 54, 53,
  55, 55, 53,
  58, 57, 56,
  60, 60, 59,
  58, 58, 56,
  63, 62, 61,
  63, 63, 61,
  66, 65, 64,
  68, 68, 67,
  66, 66, 64,
  71, 70, 69,
  73, 73, 72,
  71, 71, 69,
  76, 75, 74,
  76, 76, 74,
  79, 78, 77,
  81, 81, 80,
  79, 79, 77,
  84, 83, 82,
  84, 84, 82,
  87, 86, 85,
  89, 89, 88,
  87, 87, 85,
  92, 91, 90,
  94, 94, 93,
  92, 92, 90,
  97, 96, 95,
  97, 97, 95,
  100, 99, 98,
  102, 102, 101,
  100, 100, 98,
  105, 104, 103,
  107, 107, 106,
  105, 105, 103,
  110, 109, 108,
  110, 110, 108,
  113, 112, 111,
  115, 115, 114,
  113, 113, 111,
  118, 117, 116,
  118, 118, 116,
  121, 120, 119,
  123, 123, 122,
  121, 121, 119,
  126, 125, 124,
  128, 128, 127,
  126, 126, 124,
  131, 130, 129,
  131, 131, 129,
  134, 133, 132,
  136, 136, 135,
  134, 134, 132,
  139, 138, 137,
  141, 141, 140,
  139, 139, 137,
  144, 143, 142,
  144, 144, 142,
  147, 146, 145,
  149, 149, 148,
  147, 147, 145,
  152, 151, 150,
  152, 152, 150,
  155, 154, 153,
  157, 157, 156,
  155, 155, 153,
  160, 159, 158,
  162, 162, 161,
  160, 160, 158,
  165, 164, 163,
  165, 165, 163,
  168, 167, 166,
  170, 170, 169,
  168, 168, 166,
  173, 172, 171,
  173, 173, 171,
  176, 175, 174,
  178, 178, 177,
  176, 176, 174,
  181, 180, 179,
  183, 183, 182,
  181, 181, 179,
  186, 185, 184,
  186, 186, 184,
  189, 188, 187,
  191, 191, 190,
  189, 189, 187,
  194, 193, 192,
  196, 196, 195,
  194, 194, 192,
  199, 198, 197,
  199, 199, 197,
  202, 201, 200,
  204, 204, 203,
  202, 202, 200,
  207, 206, 205,
  207, 207, 205,
  210, 209, 208,
  212, 212, 211,
  210, 210, 208,
  215, 214, 213,
  217, 217, 216,
  215, 215, 213,
  220, 219, 218,
  220, 220, 218,
  223, 222, 221,
  225, 225, 224,
  223, 223, 221,
  228, 227, 226,
  228, 228, 226,
  231, 230, 229,
  233, 233, 232,
  231, 231, 229,
  236, 235, 234,
  238, 238, 237,
  236, 236, 234,
  241, 240, 239,
  241, 241, 239,
  244, 243, 242,
  246, 246, 245,
  244, 244, 242,
  249, 248, 247,
  251, 251, 250,
  249, 249, 247,
  254, 253, 252,
  254, 254, 252,
  257, 256, 255,
  259, 259, 258,
  257, 257, 255,
  262, 261, 260,
  262, 262, 260,
  265, 264, 263,
  267, 267, 266,
  265, 265, 263,
  270, 269, 268,
  272, 272, 271,
  270, 270, 268,
  275, 274, 273,
  275, 275, 273,
  278, 277, 276,
  280, 280, 279,
  278, 278, 276,
  283, 282, 281,
  285, 285, 284,
  283, 283, 281,
  288, 287, 286,
  288, 288, 286,
  291, 290, 289,
  293, 293, 292,
  291, 291, 289,
  296, 295, 294,
  296, 296, 294,
  299, 298, 297,
  301, 301, 300,
  299, 299, 297,
  304, 303, 302,
  306, 306, 305,
  304, 304, 302,
  309, 308, 307,
  309, 309, 307,
  312, 311, 310,
  314, 314, 313,
  312, 312, 310,
  317, 316, 315,
  317, 317, 315,
  320, 319, 318,
  322, 322, 321,
  320, 320, 318,
  325, 324, 323,
  327, 327, 326,
  325, 325, 323,
  330, 329, 328,
  330, 330, 328,
  333, 332, 331,
  335, 335, 334,
  333, 333, 331,
  338, 337, 336,
  340, 340, 339,
  338, 338, 336,
  343, 342, 341,
  343, 343, 341,
  346, 345, 344,
  348, 348, 347,
  346, 346, 344,
  351, 350, 349,
  351, 351, 349,
  354, 353, 352,
  356, 356, 355,
  354, 354, 352,
  359, 358, 357,
  361, 361, 360,
  359, 359, 357,
  364, 363, 362,
  364, 364, 362,
  367, 366, 365,
  369, 369, 368,
  367, 367, 365,
  372, 371, 370,
  374, 374, 373,
  372, 372, 370,
  377, 376, 375,
  377, 377, 375,
  1, 3, 2,
  5, 5, 4,
  1, 1, 2,
  8, 7, 6,
  8, 8, 6,
  11, 10, 9,
  13, 13, 12,
  11, 11, 9,
  16, 15, 14,
  18, 18, 17,
  16, 16, 14,
  21, 20, 19,
  21, 21, 19,
  24, 23, 22,
  26, 26, 25,
  24, 24, 22,
  29, 28, 27,
  29, 29, 27,
  32, 31, 30,
  34, 34, 33,
  32, 32, 30,
  37, 36, 35,
  39, 39, 38,
  37, 37, 35,
  42, 41, 40,
  42, 42, 40,
  45, 44, 43,
  47, 47, 46,
  45, 45, 43,
  50, 49, 48,
  52, 52, 51,
  50, 50, 48,
  55, 54, 53,
  55, 55, 53,
  58, 57, 56,
  60, 60, 59,
  58, 58, 56,
  63, 62, 61,
  63, 63, 61,
  66, 65, 64,
  68, 68, 67,
  66, 66, 64,
  71, 70, 69,
  73, 73, 72,
  71, 71, 69,
  76, 75, 74,
  76, 76, 74,
  79, 78, 77,
  81, 81, 80,
  79, 79, 77,
  84, 83, 82,
  84, 84, 82,
  87, 86, 85,
  89, 89, 88,
  87, 87, 85,
  92, 91, 90,
  94, 94, 93,
  92, 92, 90,
  97, 96, 95,
  97, 97, 95,
  100, 99, 98,
  102, 102, 101,
  100, 100, 98,
  105, 104, 103,
  107, 107, 106,
  105, 105, 103,
  110, 109, 108,
  110, 110, 108,
  113, 112, 111,
  115, 115, 114,
  113, 113, 111,
  118, 117, 116,
  118, 118, 116,
  121, 120, 119,
  123, 123, 122,
  121, 121, 119,
  126, 125, 124,
  128, 128, 127,
  126, 126, 124,
  131, 130, 129,
  131, 131, 129,
  134, 133, 132,
  136, 136, 135,
  134, 134, 132,
  139, 138, 137,
  141, 141, 140,
  139, 139, 137,
  144, 143, 142,
  144, 144, 142,
  147, 146, 145,
  149, 149, 148,
  147, 147, 145,
  152, 151, 150,
  152, 152, 150,
  155, 154, 153,
  157, 157, 156,
  155, 155, 153,
  160, 159, 158,
  162, 162, 161,
  160, 160, 158,
  165, 164, 163,
  165, 165, 163,
  168, 167, 166,
  170, 170, 169,
  168, 168, 166,
  173, 172, 171,
  173, 173, 171,
  176, 175, 174,
  178, 178, 177,
  176, 176, 174,
  181, 180, 179,
  183, 183, 182,
  181, 181, 179,
  186, 185, 184,
  186, 186, 184,
  189, 188, 187,
  191, 191, 190,
  189, 189, 187,
  194, 193, 192,
  196, 196, 195,
  194, 194, 192,
  199, 198, 197,
  199, 199, 197,
  202, 201, 200,
  204, 204, 203,
  202, 202, 200,
  207, 206, 205,
  207, 207, 205,
  210, 209, 208,
  212, 212, 211,
  210, 210, 208,
  215, 214, 213,
  217, 217, 216,
  215, 215, 213,
  220, 219, 218,
  220, 220, 218,
  223, 222, 221,
  225, 225, 224,
  223, 223, 221,
  228, 227, 226,
  228, 228, 226,
  231, 230, 229,
  233, 233, 232,
  231, 231, 229
]);
d_nfa = array2d(1..377, 1..3, [
  {}, {}, {},
  {}, {}, {},
  {}, {}, {},
  {}, {}, {},
  {}, {}, {},
  {}, {}, {},
  {}, {}, {},
  {}, {}, {},
  {}, {}, {},
  {}, {}, {},
  {}, {}, {},
  {}, {}, {},
  {}, {}, {},
  {}, {}, {},
  {}, {}, {},
  {}, {}, {},
  {}, {}, {},
  {}, {}, {},
  {}, {}, {},
  {}, {}, {},
  {}, {}, {},
  {}, {}, {},
  {}, {}, {},
  {}, {}, {},
  {}, {}, {},
  {}, {}, {},
  {}, {}, {},
  {}, {}, {},
  {}, {}, {},
  {}, {}, {},
  {}, {}, {},
  {}, {}, {},
  {}, {}, {},
  {}, {}, {},
  {}, {}, {},
  {}, {}, {},
  {}, {}, {},
  {}, {}, {},
  {}, {}, {},
  {}, {}, {},
  {}, {}, {},
  {}, {}, {},
  {}, {}, {},
  {}, {}, {},
  {}, {}, {},
  {}, {}, {},
  {}, {}, {},
  {}, {}, {},
  {}, {}, {},
  {}, {}, {},
  {}, {}, {},
  {}, {}, {},
  {}, {}, {},
  {}, {}, {},
  {}, {}, {},
  {}, {}, {},
  {}, {}, {},
  {}, {}, {},
  {}, {}, {},
  {}, {}, {},
  {}, {}, {},
  {}, {}, {},
  {}, {}, {},
  {}, {}, {},
  {}, {}, {},
  {}, {}, {},
  {}, {}, {},
  {}, {}, {},
  {}, {}, {},
  {}, {}, {},
  {}, {}, {},
  {}, {}, {},
  {}, {}, {},
  {}, {}, {},
  {}, {}, {},
  {}, {}, {},
  {}, {}, {},
  {}, {}, {},
  {}, {}, {},
  {}, {}, {},
  {}, {}, {},
  {}, {}, {},
  {}, {}, {},
  {}, {}, {},
  {}, {}, {},
  {}, {}, {},
  {}, {}, {},
  {}, {}, {},
  {}, {}, {},
  {}, {}, {},
  {}, {}, {},
  {}, {}, {},
  {}, {}, {},
  {}, {}, {},
  {}, {}, {},
  {}, {}, {},
  {}, {}, {},
  {}, {}, {},
  {}, {}, {},
  {}, {}, {},
  {}, {}, {},
  {}, {}, {},
  {}, {}, {},
  {}, {}, {},
  {}, {}, {},
  {}, {}, {},
  {}, {}, {},
  {}, {}, {},
  {}, {}, {},
  {}, {}, {},
  {}, {}, {},
  {}, {}, {},
  {}, {}, {},
  {}, {}, {},
  {}, {}, {},
  {}, {}, {},
  {}, {}, {},
  {}, {}, {},
  {}, {}, {},
  {}, {}, {},
  {}, {}, {},
  {}, {}, {},
  {}, {}, {},
  {}, {}, {},
  {}, {}, {},
  {}, {}, {},
  {}, {}, {},
  {}, {}, {},
  {}, {}, {},
  {}, {}, {},
  {}, {}, {},
  {}, {}, {},
  {}, {}, {},
  {}, {}, {},
  {}, {}, {},
  {}, {}, {},
  {}, {}, {},
  {}, {}, {},
  {}, {}, {},
  {}, {}, {},
  {}, {}, {},
  {}, {}, {},
  {}, {}, {},
  {}, {}, {},
  {}, {}, {},
  {}, {}, {},
  {}, {}, {},
  {}, {}, {},
  {}, {}, {},
  {}, {}, {},
  {}, {}, {},
  {}, {}, {},
  {}, {}, {},
  {}, {}, {},
  {}, {}, {},
  {}, {}, {},
  {}, {}, {},
  {}, {}, {},
  {}, {}, {},
  {}, {}, {},
  {}, {}, {},
  {}, {}, {},
  {}, {}, {},
  {}, {}, {},
  {}, {}, {},
  {}, {}, {},
  {}, {}, {},
  {}, {}, {},
  {}, {}, {},
  {}, {}, {},
  {}, {}, {},
  {}, {}, {},
  {}, {}, {},
  {}, {}, {},
  {}, {}, {},
  {}, {}, {},
  {}, {}, {},
  {}, {}, {},
  {}, {}, {},
  {}, {}, {},
  {}, {}, {},
  {}, {}, {},
  {}, {}, {},
  {}, {}, {},
  {}, {}, {},
  {}, {}, {},
  {}, {}, {},
  {}, {}, {},
  {}, {}, {},
  {}, {}, {},
  {}, {}, {},
  {}, {}, {},
  {}, {}, {},
  {}, {}, {},
  {}, {}, {},
  {}, {}, {},
  {}, {}, {},
  {}, {}, {},
  {}, {}, {},
  {}, {}, {},
  {}, {}, {},
  {}, {}, {},
  {}, {}, {},
  {}, {}, {},
  {}, {}, {},
  {}, {}, {},
  {}, {}, {},
  {}, {}, {},
  {}, {}, {},
  {}, {}, {},
  {}, {}, {},
  {}, {}, {},
  {}, {}, {},
  {}, {}, {},
  {}, {}, {},
  {}, {}, {},
  {}, {}, {},
  {}, {}, {},
  {}, {}, {},
  {}, {}, {},
  {}, {}, {},
  {}, {}, {},
  {}, {}, {},
  {}, {}, {},
  {}, {}, {},
  {}, {}, {},
  {}, {}, {},
  {}, {}, {},
  {}, {}, {},
  {}, {}, {},
  {}, {}, {},
  {}, {}, {},
  {}, {}, {},
  {}, {}, {},
  {}, {}, {},
  {}, {}, {},
  {}, {}, {},
  {}, {}, {},
  {}, {}, {},
  {}, {}, {},
  {}, {}, {},
  {}, {}, {},
  {}, {}, {},
  {}, {}, {},
  {}, {}, {},
  {}, {}, {},
  {}, {}, {},
  {}, {}, {},
  {}, {}, {},
  {}, {}, {},
  {}, {}, {},
  {}, {}, {},
  {}, {}, {},
  {}, {}, {},
  {}, {}, {},
  {}, {}, {},
  {}, {}, {},
  {}, {}, {},
  {}, {}, {},
  {}, {}, {},
  {}, {}, {},
  {}, {}, {},
  {}, {}, {},
  {}, {}, {},
  {}, {}, {},
  {}, {}, {},
  {}, {}, {},
  {}, {}, {},
  {}, {}, {},
  {}, {}, {},
  {}, {}, {},
  {}, {}, {},
  {}, {}, {},
  {}, {}, {},
  {}, {}, {},
  {}, {}, {},
  {}, {}, {},
  {}, {}, {},
  {}, {}, {},
  {}, {}, {},
  {}, {}, {},
  {}, {}, {},
  {}, {}, {},
  {}, {}, {},
  {}, {}, {},
  {}, {}, {},
  {}, {}, {},
  {}, {}, {},
  {}, {}, {},
  {}, {}, {},
  {}, {}, {},
  {}, {}, {},
  {}, {}, {},
  {}, {}, {},
  {}, {}, {},
  {}, {}, {},
  {}, {}, {},
  {}, {}, {},
  {}, {}, {},
  {}, {}, {},
  {}, {}, {},
  {}, {}, {},
  {}, {}, {},
  {}, {}, {},
  {}, {}, {},
  {}, {}, {},
  {}, {}, {},
  {}, {}, {},
  {}, {}, {},
  {}, {}, {},
  {}, {}, {},
  {}, {}, {},
  {}, {}, {},
  {}, {}, {},
  {}, {}, {},
  {}, {}, {},
  {}, {}, {},
  {}, {}, {},
  {}, {}, {},
  {}, {}, {},
  {}, {}, {},
  {}, {}, {},
  {}, {}, {},
  {}, {}, {},
  {}, {}, {},
  {}, {}, {},
  {}, {}, {},
  {}, {}, {},
  {}, {}, {},
  {}, {}, {},
  {}, {}, {},
  {}, {}, {},
  {}, {}, {},
  {}, {}, {},
  {}, {}, {},
  {}, {}, {},
  {}, {}, {},
  {}, {}, {},
  {}, {}, {},
  {}, {}, {},
  {}, {}, {},
  {}, {}, {},
  {}, {}, {},
  {}, {}, {},
  {}, {}, {},
  {}, {}, {},
  {}, {}, {},
  {}, {}, {},
  {}, {}, {},
  {}, {}, {},
  {}, {}, {},
  {}, {}, {},
  {}, {}, {},
  {}, {}, {},
  {}, {}, {},
  {}, {}, {},
  {}, {}, {},
  {}, {}, {},
  {}, {}, {},
  {}, {}, {},
  {}, {}, {},
  {}, {}, {},
  {}, {}, {},
  {}, {}, {},
  {}, {}, {},
  {}, {}, {},
  {}, {}, {},
  {}, {}, {},
  {}, {}, {},
  {}, {}, {},
  {}, {}, {},
  {}, {}, {},
  {}, {}, {},
  {}, {}, {},
  {}, {}, {},
  {}, {}, {},
  {}, {}, {}
]);
